(set-info :smt-lib-version 2.6)
(set-logic QF_NIA)
(set-info :source |
Generated by: Cristina Borralleras, Daniel Larraz, Albert Oliveras, Enric Rodriguez-Carbonell, Albert Rubio
Generated on: 2017-04-27
Generator: VeryMax
Application: Termination proving
Target solver: barcelogic
|)
(set-info :license "https://creativecommons.org/licenses/by/4.0/")
(set-info :category "industrial")
(set-info :status unsat)
(declare-fun Nl2arg11 () Int)
(declare-fun Nl2arg21 () Int)
(declare-fun Nl2arg31 () Int)
(declare-fun Nl2arg41 () Int)
(declare-fun lam0n0 () Int)
(declare-fun lam0n1 () Int)
(declare-fun lam0n2 () Int)
(declare-fun lam0n3 () Int)
(declare-fun lam0n4 () Int)
(declare-fun lam0n5 () Int)
(declare-fun lam0n6 () Int)
(declare-fun lam0n7 () Int)
(declare-fun lam0n8 () Int)
(declare-fun lam0n9 () Int)
(declare-fun lam0n10 () Int)
(declare-fun lam0n11 () Int)
(declare-fun lam0n12 () Int)
(declare-fun lam0n13 () Int)
(declare-fun lam0n14 () Int)
(declare-fun lam0n15 () Int)
(declare-fun lam0n16 () Int)
(declare-fun lam0n17 () Int)
(declare-fun lam0n18 () Int)
(declare-fun lam0n19 () Int)
(declare-fun lam0n20 () Int)
(declare-fun lam0n21 () Int)
(declare-fun lam0n22 () Int)
(declare-fun Nl2CT1 () Int)
(declare-fun lam1n0 () Int)
(declare-fun lam1n1 () Int)
(declare-fun lam1n2 () Int)
(declare-fun lam1n3 () Int)
(declare-fun lam1n4 () Int)
(declare-fun lam1n5 () Int)
(declare-fun lam1n6 () Int)
(declare-fun lam1n7 () Int)
(declare-fun lam1n8 () Int)
(declare-fun lam1n9 () Int)
(declare-fun lam1n10 () Int)
(declare-fun lam1n11 () Int)
(declare-fun lam1n12 () Int)
(declare-fun lam1n13 () Int)
(declare-fun lam1n14 () Int)
(declare-fun lam1n15 () Int)
(declare-fun lam1n16 () Int)
(declare-fun lam1n17 () Int)
(declare-fun lam1n18 () Int)
(declare-fun lam1n19 () Int)
(declare-fun lam1n20 () Int)
(declare-fun lam1n21 () Int)
(declare-fun lam1n22 () Int)
(declare-fun lam4n0 () Int)
(declare-fun lam4n1 () Int)
(declare-fun lam4n2 () Int)
(declare-fun lam4n3 () Int)
(declare-fun lam4n4 () Int)
(declare-fun lam4n5 () Int)
(declare-fun lam4n6 () Int)
(declare-fun lam4n7 () Int)
(declare-fun lam4n8 () Int)
(declare-fun lam4n9 () Int)
(declare-fun lam4n10 () Int)
(declare-fun lam4n11 () Int)
(declare-fun lam4n12 () Int)
(declare-fun lam4n13 () Int)
(declare-fun lam4n14 () Int)
(declare-fun lam4n15 () Int)
(declare-fun lam4n16 () Int)
(declare-fun lam4n17 () Int)
(declare-fun lam4n18 () Int)
(declare-fun lam4n19 () Int)
(declare-fun lam4n20 () Int)
(declare-fun lam4n21 () Int)
(declare-fun lam4n22 () Int)
(declare-fun RFN1_CT () Int)
(declare-fun RFN1_arg1 () Int)
(declare-fun RFN1_arg2 () Int)
(declare-fun RFN1_arg3 () Int)
(declare-fun RFN1_arg4 () Int)
(declare-fun lam2n0 () Int)
(declare-fun lam2n1 () Int)
(declare-fun lam2n2 () Int)
(declare-fun lam2n3 () Int)
(declare-fun lam2n4 () Int)
(declare-fun lam2n5 () Int)
(declare-fun lam2n6 () Int)
(declare-fun lam2n7 () Int)
(declare-fun lam2n8 () Int)
(declare-fun lam2n9 () Int)
(declare-fun lam2n10 () Int)
(declare-fun lam2n11 () Int)
(declare-fun lam2n12 () Int)
(declare-fun lam2n13 () Int)
(declare-fun lam2n14 () Int)
(declare-fun lam2n15 () Int)
(declare-fun lam2n16 () Int)
(declare-fun lam2n17 () Int)
(declare-fun lam2n18 () Int)
(declare-fun lam2n19 () Int)
(declare-fun lam2n20 () Int)
(declare-fun lam2n21 () Int)
(declare-fun lam2n22 () Int)
(declare-fun lam3n0 () Int)
(declare-fun lam3n1 () Int)
(declare-fun lam3n2 () Int)
(declare-fun lam3n3 () Int)
(declare-fun lam3n4 () Int)
(declare-fun lam3n5 () Int)
(declare-fun lam3n6 () Int)
(declare-fun lam3n7 () Int)
(declare-fun lam3n8 () Int)
(declare-fun lam3n9 () Int)
(declare-fun lam3n10 () Int)
(declare-fun lam3n11 () Int)
(declare-fun lam3n12 () Int)
(declare-fun lam3n13 () Int)
(declare-fun lam3n14 () Int)
(declare-fun lam3n15 () Int)
(declare-fun lam3n16 () Int)
(declare-fun lam3n17 () Int)
(declare-fun lam3n18 () Int)
(declare-fun lam3n19 () Int)
(declare-fun lam3n20 () Int)
(declare-fun lam3n21 () Int)
(declare-fun lam3n22 () Int)
(declare-fun lam5n0 () Int)
(declare-fun lam5n1 () Int)
(declare-fun lam5n2 () Int)
(declare-fun lam5n3 () Int)
(declare-fun lam5n4 () Int)
(declare-fun lam5n5 () Int)
(declare-fun lam5n6 () Int)
(declare-fun lam5n7 () Int)
(declare-fun lam5n8 () Int)
(declare-fun lam5n9 () Int)
(declare-fun lam5n10 () Int)
(declare-fun lam5n11 () Int)
(declare-fun lam5n12 () Int)
(declare-fun lam5n13 () Int)
(declare-fun lam5n14 () Int)
(declare-fun lam5n15 () Int)
(declare-fun lam5n16 () Int)
(declare-fun lam5n17 () Int)
(declare-fun lam5n18 () Int)
(declare-fun lam5n19 () Int)
(declare-fun lam5n20 () Int)
(declare-fun lam5n21 () Int)
(declare-fun lam5n22 () Int)
(assert ( and ( <= ( - 1 ) Nl2arg11 ) ( <= Nl2arg11 1 ) ( <= ( - 1 ) Nl2arg21 ) ( <= Nl2arg21 1 ) ( <= ( - 1 ) Nl2arg31 ) ( <= Nl2arg31 1 ) ( <= ( - 1 ) Nl2arg41 ) ( <= Nl2arg41 1 ) ))
(assert ( or ( and ( >= lam0n0 0 ) ( >= lam0n1 0 ) ( >= lam0n2 0 ) ( >= lam0n3 0 ) ( >= lam0n4 0 ) ( >= lam0n5 0 ) ( >= lam0n6 0 ) ( >= lam0n7 0 ) ( >= lam0n8 0 ) ( >= lam0n9 0 ) ( >= lam0n10 0 ) ( >= lam0n11 0 ) ( >= lam0n12 0 ) ( >= lam0n13 0 ) ( >= lam0n14 0 ) ( >= lam0n15 0 ) ( >= lam0n16 0 ) ( >= lam0n17 0 ) ( >= lam0n18 0 ) ( >= lam0n19 0 ) ( >= lam0n20 0 ) ( >= lam0n21 0 ) ( >= lam0n22 0 ) ( > ( + ( * 1 lam0n0 ) ( * 1 lam0n1 ) ( * 1 lam0n2 ) ( * 1 lam0n3 ) ( * 1 lam0n4 ) ( * 1 lam0n5 ) ( * ( - 1 ) lam0n6 ) ( * 2 lam0n10 ) ( * 2 lam0n11 ) ( * 2 lam0n12 ) ( * 50001 lam0n13 ) ( * 50001 lam0n14 ) ( * 50001 lam0n15 ) ( * 50001 lam0n16 ) ( * 50001 lam0n17 ) ( * 50001 lam0n18 ) ( * 50001 lam0n19 ) ( * 50001 lam0n20 ) ( * 50001 lam0n21 ) ( * Nl2CT1 lam0n22 ) ( - 1 ) ) 0 ) ( = ( + ( * ( - 1 ) lam0n0 ) ( * ( - 1 ) lam0n1 ) ( * ( - 1 ) lam0n2 ) ( * ( - 1 ) lam0n7 ) ( * ( - 1 ) lam0n8 ) ( * ( - 1 ) lam0n10 ) ( * 1 lam0n13 ) ( * 1 lam0n14 ) ( * 1 lam0n15 ) ( * ( - 1 ) lam0n16 ) ( * ( - 1 ) lam0n17 ) ( * ( - 1 ) lam0n18 ) ( * Nl2arg11 lam0n22 ) ) 0 ) ( = ( + ( * ( - 1 ) lam0n1 ) ( * ( - 1 ) lam0n2 ) ( * 1 lam0n6 ) ( * 1 lam0n7 ) ( * ( - 1 ) lam0n9 ) ( * ( - 1 ) lam0n11 ) ( * ( - 1 ) lam0n13 ) ( * ( - 1 ) lam0n14 ) ( * ( - 1 ) lam0n15 ) ( * ( - 1 ) lam0n16 ) ( * ( - 1 ) lam0n17 ) ( * ( - 1 ) lam0n18 ) ( * ( - 1 ) lam0n19 ) ( * ( - 1 ) lam0n20 ) ( * ( - 1 ) lam0n21 ) ( * Nl2arg21 lam0n22 ) ) 0 ) ( = ( + ( * ( - 1 ) lam0n3 ) ( * ( - 1 ) lam0n4 ) ( * ( - 1 ) lam0n6 ) ( * ( - 1 ) lam0n7 ) ( * ( - 1 ) lam0n10 ) ( * ( - 1 ) lam0n13 ) ( * ( - 1 ) lam0n14 ) ( * ( - 1 ) lam0n15 ) ( * ( - 2 ) lam0n16 ) ( * ( - 2 ) lam0n17 ) ( * ( - 2 ) lam0n18 ) ( * ( - 1 ) lam0n19 ) ( * ( - 1 ) lam0n20 ) ( * ( - 1 ) lam0n21 ) ( * Nl2arg31 lam0n22 ) ) 0 ) ( = ( + ( * ( - 1 ) lam0n2 ) ( * 1 lam0n4 ) ( * 1 lam0n10 ) ( * ( - 1 ) lam0n11 ) ( * ( - 1 ) lam0n12 ) ( * 1 lam0n14 ) ( * ( - 2 ) lam0n15 ) ( * 1 lam0n17 ) ( * ( - 1 ) lam0n18 ) ( * 1 lam0n20 ) ( * ( - 1 ) lam0n21 ) ( * Nl2arg41 lam0n22 ) ) 0 ) ( = ( + ( * ( - 1 ) lam0n5 ) ( * 1 lam0n8 ) ) 0 ) ) ( and ( >= lam1n0 0 ) ( >= lam1n1 0 ) ( >= lam1n2 0 ) ( >= lam1n3 0 ) ( >= lam1n4 0 ) ( >= lam1n5 0 ) ( >= lam1n6 0 ) ( >= lam1n7 0 ) ( >= lam1n8 0 ) ( >= lam1n9 0 ) ( >= lam1n10 0 ) ( >= lam1n11 0 ) ( >= lam1n12 0 ) ( >= lam1n13 0 ) ( >= lam1n14 0 ) ( >= lam1n15 0 ) ( >= lam1n16 0 ) ( >= lam1n17 0 ) ( >= lam1n18 0 ) ( >= lam1n19 0 ) ( >= lam1n20 0 ) ( >= lam1n21 0 ) ( >= lam1n22 0 ) ( > ( + ( * 1 lam1n0 ) ( * 1 lam1n1 ) ( * 1 lam1n2 ) ( * 1 lam1n3 ) ( * 1 lam1n4 ) ( * 1 lam1n5 ) ( * ( - 1 ) lam1n6 ) ( * 2 lam1n10 ) ( * 2 lam1n11 ) ( * 2 lam1n12 ) ( * 50001 lam1n13 ) ( * 50001 lam1n14 ) ( * 50001 lam1n15 ) ( * 50001 lam1n16 ) ( * 50001 lam1n17 ) ( * 50001 lam1n18 ) ( * 50001 lam1n19 ) ( * 50001 lam1n20 ) ( * 50001 lam1n21 ) ( * Nl2CT1 lam1n22 ) ( - 1 ( + ( + ( + Nl2CT1 ( * Nl2arg11 0 ) ) ( * Nl2arg21 0 ) ) ( * Nl2arg31 0 ) ) ) ) 0 ) ( = ( + ( * ( - 1 ) lam1n0 ) ( * ( - 1 ) lam1n1 ) ( * ( - 1 ) lam1n2 ) ( * ( - 1 ) lam1n7 ) ( * ( - 1 ) lam1n8 ) ( * ( - 1 ) lam1n10 ) ( * 1 lam1n13 ) ( * 1 lam1n14 ) ( * 1 lam1n15 ) ( * ( - 1 ) lam1n16 ) ( * ( - 1 ) lam1n17 ) ( * ( - 1 ) lam1n18 ) ( * Nl2arg11 lam1n22 ) ) 0 ) ( = ( + ( * ( - 1 ) lam1n1 ) ( * ( - 1 ) lam1n2 ) ( * 1 lam1n6 ) ( * 1 lam1n7 ) ( * ( - 1 ) lam1n9 ) ( * ( - 1 ) lam1n11 ) ( * ( - 1 ) lam1n13 ) ( * ( - 1 ) lam1n14 ) ( * ( - 1 ) lam1n15 ) ( * ( - 1 ) lam1n16 ) ( * ( - 1 ) lam1n17 ) ( * ( - 1 ) lam1n18 ) ( * ( - 1 ) lam1n19 ) ( * ( - 1 ) lam1n20 ) ( * ( - 1 ) lam1n21 ) ( * Nl2arg21 lam1n22 ) ( - ( + 0 ( * Nl2arg31 1 ) ) ) ) 0 ) ( = ( + ( * ( - 1 ) lam1n3 ) ( * ( - 1 ) lam1n4 ) ( * ( - 1 ) lam1n6 ) ( * ( - 1 ) lam1n7 ) ( * ( - 1 ) lam1n10 ) ( * ( - 1 ) lam1n13 ) ( * ( - 1 ) lam1n14 ) ( * ( - 1 ) lam1n15 ) ( * ( - 2 ) lam1n16 ) ( * ( - 2 ) lam1n17 ) ( * ( - 2 ) lam1n18 ) ( * ( - 1 ) lam1n19 ) ( * ( - 1 ) lam1n20 ) ( * ( - 1 ) lam1n21 ) ( * Nl2arg31 lam1n22 ) ( - ( + ( + 0 ( * Nl2arg21 1 ) ) ( * Nl2arg31 1 ) ) ) ) 0 ) ( = ( + ( * ( - 1 ) lam1n2 ) ( * 1 lam1n4 ) ( * 1 lam1n10 ) ( * ( - 1 ) lam1n11 ) ( * ( - 1 ) lam1n12 ) ( * 1 lam1n14 ) ( * ( - 2 ) lam1n15 ) ( * 1 lam1n17 ) ( * ( - 1 ) lam1n18 ) ( * 1 lam1n20 ) ( * ( - 1 ) lam1n21 ) ( * Nl2arg41 lam1n22 ) ( - ( + 0 Nl2arg41 ) ) ) 0 ) ( = ( + ( * ( - 1 ) lam1n5 ) ( * 1 lam1n8 ) ( - ( + 0 ( * Nl2arg11 1 ) ) ) ) 0 ) ) ))
(assert ( or ( and ( >= lam0n0 0 ) ( >= lam0n1 0 ) ( >= lam0n2 0 ) ( >= lam0n3 0 ) ( >= lam0n4 0 ) ( >= lam0n5 0 ) ( >= lam0n6 0 ) ( >= lam0n7 0 ) ( >= lam0n8 0 ) ( >= lam0n9 0 ) ( >= lam0n10 0 ) ( >= lam0n11 0 ) ( >= lam0n12 0 ) ( >= lam0n13 0 ) ( >= lam0n14 0 ) ( >= lam0n15 0 ) ( >= lam0n16 0 ) ( >= lam0n17 0 ) ( >= lam0n18 0 ) ( >= lam0n19 0 ) ( >= lam0n20 0 ) ( >= lam0n21 0 ) ( >= lam0n22 0 ) ( > ( + ( * 1 lam0n0 ) ( * 1 lam0n1 ) ( * 1 lam0n2 ) ( * 1 lam0n3 ) ( * 1 lam0n4 ) ( * 1 lam0n5 ) ( * ( - 1 ) lam0n6 ) ( * 2 lam0n10 ) ( * 2 lam0n11 ) ( * 2 lam0n12 ) ( * 50001 lam0n13 ) ( * 50001 lam0n14 ) ( * 50001 lam0n15 ) ( * 50001 lam0n16 ) ( * 50001 lam0n17 ) ( * 50001 lam0n18 ) ( * 50001 lam0n19 ) ( * 50001 lam0n20 ) ( * 50001 lam0n21 ) ( * Nl2CT1 lam0n22 ) ( - 1 ) ) 0 ) ( = ( + ( * ( - 1 ) lam0n0 ) ( * ( - 1 ) lam0n1 ) ( * ( - 1 ) lam0n2 ) ( * ( - 1 ) lam0n7 ) ( * ( - 1 ) lam0n8 ) ( * ( - 1 ) lam0n10 ) ( * 1 lam0n13 ) ( * 1 lam0n14 ) ( * 1 lam0n15 ) ( * ( - 1 ) lam0n16 ) ( * ( - 1 ) lam0n17 ) ( * ( - 1 ) lam0n18 ) ( * Nl2arg11 lam0n22 ) ) 0 ) ( = ( + ( * ( - 1 ) lam0n1 ) ( * ( - 1 ) lam0n2 ) ( * 1 lam0n6 ) ( * 1 lam0n7 ) ( * ( - 1 ) lam0n9 ) ( * ( - 1 ) lam0n11 ) ( * ( - 1 ) lam0n13 ) ( * ( - 1 ) lam0n14 ) ( * ( - 1 ) lam0n15 ) ( * ( - 1 ) lam0n16 ) ( * ( - 1 ) lam0n17 ) ( * ( - 1 ) lam0n18 ) ( * ( - 1 ) lam0n19 ) ( * ( - 1 ) lam0n20 ) ( * ( - 1 ) lam0n21 ) ( * Nl2arg21 lam0n22 ) ) 0 ) ( = ( + ( * ( - 1 ) lam0n3 ) ( * ( - 1 ) lam0n4 ) ( * ( - 1 ) lam0n6 ) ( * ( - 1 ) lam0n7 ) ( * ( - 1 ) lam0n10 ) ( * ( - 1 ) lam0n13 ) ( * ( - 1 ) lam0n14 ) ( * ( - 1 ) lam0n15 ) ( * ( - 2 ) lam0n16 ) ( * ( - 2 ) lam0n17 ) ( * ( - 2 ) lam0n18 ) ( * ( - 1 ) lam0n19 ) ( * ( - 1 ) lam0n20 ) ( * ( - 1 ) lam0n21 ) ( * Nl2arg31 lam0n22 ) ) 0 ) ( = ( + ( * ( - 1 ) lam0n2 ) ( * 1 lam0n4 ) ( * 1 lam0n10 ) ( * ( - 1 ) lam0n11 ) ( * ( - 1 ) lam0n12 ) ( * 1 lam0n14 ) ( * ( - 2 ) lam0n15 ) ( * 1 lam0n17 ) ( * ( - 1 ) lam0n18 ) ( * 1 lam0n20 ) ( * ( - 1 ) lam0n21 ) ( * Nl2arg41 lam0n22 ) ) 0 ) ( = ( + ( * ( - 1 ) lam0n5 ) ( * 1 lam0n8 ) ) 0 ) ) ( and ( >= lam4n0 0 ) ( >= lam4n1 0 ) ( >= lam4n2 0 ) ( >= lam4n3 0 ) ( >= lam4n4 0 ) ( >= lam4n5 0 ) ( >= lam4n6 0 ) ( >= lam4n7 0 ) ( >= lam4n8 0 ) ( >= lam4n9 0 ) ( >= lam4n10 0 ) ( >= lam4n11 0 ) ( >= lam4n12 0 ) ( >= lam4n13 0 ) ( >= lam4n14 0 ) ( >= lam4n15 0 ) ( >= lam4n16 0 ) ( >= lam4n17 0 ) ( >= lam4n18 0 ) ( >= lam4n19 0 ) ( >= lam4n20 0 ) ( >= lam4n21 0 ) ( >= lam4n22 0 ) ( > ( + ( * 1 lam4n0 ) ( * 1 lam4n1 ) ( * 1 lam4n2 ) ( * 1 lam4n3 ) ( * 1 lam4n4 ) ( * 1 lam4n5 ) ( * ( - 1 ) lam4n6 ) ( * 2 lam4n10 ) ( * 2 lam4n11 ) ( * 2 lam4n12 ) ( * 50001 lam4n13 ) ( * 50001 lam4n14 ) ( * 50001 lam4n15 ) ( * 50001 lam4n16 ) ( * 50001 lam4n17 ) ( * 50001 lam4n18 ) ( * 50001 lam4n19 ) ( * 50001 lam4n20 ) ( * 50001 lam4n21 ) ( * Nl2CT1 lam4n22 ) ( - 1 ( - ( + ( + ( + RFN1_CT ( * RFN1_arg1 0 ) ) ( * RFN1_arg2 0 ) ) ( * RFN1_arg3 0 ) ) RFN1_CT ) ) ) 0 ) ( = ( + ( * ( - 1 ) lam4n0 ) ( * ( - 1 ) lam4n1 ) ( * ( - 1 ) lam4n2 ) ( * ( - 1 ) lam4n7 ) ( * ( - 1 ) lam4n8 ) ( * ( - 1 ) lam4n10 ) ( * 1 lam4n13 ) ( * 1 lam4n14 ) ( * 1 lam4n15 ) ( * ( - 1 ) lam4n16 ) ( * ( - 1 ) lam4n17 ) ( * ( - 1 ) lam4n18 ) ( * Nl2arg11 lam4n22 ) ( - ( - RFN1_arg1 ) ) ) 0 ) ( = ( + ( * ( - 1 ) lam4n1 ) ( * ( - 1 ) lam4n2 ) ( * 1 lam4n6 ) ( * 1 lam4n7 ) ( * ( - 1 ) lam4n9 ) ( * ( - 1 ) lam4n11 ) ( * ( - 1 ) lam4n13 ) ( * ( - 1 ) lam4n14 ) ( * ( - 1 ) lam4n15 ) ( * ( - 1 ) lam4n16 ) ( * ( - 1 ) lam4n17 ) ( * ( - 1 ) lam4n18 ) ( * ( - 1 ) lam4n19 ) ( * ( - 1 ) lam4n20 ) ( * ( - 1 ) lam4n21 ) ( * Nl2arg21 lam4n22 ) ( - ( - ( + 0 ( * RFN1_arg3 1 ) ) RFN1_arg2 ) ) ) 0 ) ( = ( + ( * ( - 1 ) lam4n3 ) ( * ( - 1 ) lam4n4 ) ( * ( - 1 ) lam4n6 ) ( * ( - 1 ) lam4n7 ) ( * ( - 1 ) lam4n10 ) ( * ( - 1 ) lam4n13 ) ( * ( - 1 ) lam4n14 ) ( * ( - 1 ) lam4n15 ) ( * ( - 2 ) lam4n16 ) ( * ( - 2 ) lam4n17 ) ( * ( - 2 ) lam4n18 ) ( * ( - 1 ) lam4n19 ) ( * ( - 1 ) lam4n20 ) ( * ( - 1 ) lam4n21 ) ( * Nl2arg31 lam4n22 ) ( - ( - ( + ( + 0 ( * RFN1_arg2 1 ) ) ( * RFN1_arg3 1 ) ) RFN1_arg3 ) ) ) 0 ) ( = ( + ( * ( - 1 ) lam4n2 ) ( * 1 lam4n4 ) ( * 1 lam4n10 ) ( * ( - 1 ) lam4n11 ) ( * ( - 1 ) lam4n12 ) ( * 1 lam4n14 ) ( * ( - 2 ) lam4n15 ) ( * 1 lam4n17 ) ( * ( - 1 ) lam4n18 ) ( * 1 lam4n20 ) ( * ( - 1 ) lam4n21 ) ( * Nl2arg41 lam4n22 ) ( - ( - ( + 0 RFN1_arg4 ) RFN1_arg4 ) ) ) 0 ) ( = ( + ( * ( - 1 ) lam4n5 ) ( * 1 lam4n8 ) ( - ( + 0 ( * RFN1_arg1 1 ) ) ) ) 0 ) ) ))
(assert ( and ( and ( and ( >= lam2n0 0 ) ( >= lam2n1 0 ) ( >= lam2n2 0 ) ( >= lam2n3 0 ) ( >= lam2n4 0 ) ( >= lam2n5 0 ) ( >= lam2n6 0 ) ( >= lam2n7 0 ) ( >= lam2n8 0 ) ( >= lam2n9 0 ) ( >= lam2n10 0 ) ( >= lam2n11 0 ) ( >= lam2n12 0 ) ( >= lam2n13 0 ) ( >= lam2n14 0 ) ( >= lam2n15 0 ) ( >= lam2n16 0 ) ( >= lam2n17 0 ) ( >= lam2n18 0 ) ( >= lam2n19 0 ) ( >= lam2n20 0 ) ( >= lam2n21 0 ) ( >= lam2n22 0 ) ( > ( + ( * 1 lam2n0 ) ( * 1 lam2n1 ) ( * 1 lam2n2 ) ( * 1 lam2n3 ) ( * 1 lam2n4 ) ( * 1 lam2n5 ) ( * ( - 1 ) lam2n6 ) ( * 2 lam2n10 ) ( * 2 lam2n11 ) ( * 2 lam2n12 ) ( * 50001 lam2n13 ) ( * 50001 lam2n14 ) ( * 50001 lam2n15 ) ( * 50001 lam2n16 ) ( * 50001 lam2n17 ) ( * 50001 lam2n18 ) ( * 50001 lam2n19 ) ( * 50001 lam2n20 ) ( * 50001 lam2n21 ) ( * Nl2CT1 lam2n22 ) ( - 1 ( - RFN1_CT ) ) ) 0 ) ( = ( + ( * ( - 1 ) lam2n0 ) ( * ( - 1 ) lam2n1 ) ( * ( - 1 ) lam2n2 ) ( * ( - 1 ) lam2n7 ) ( * ( - 1 ) lam2n8 ) ( * ( - 1 ) lam2n10 ) ( * 1 lam2n13 ) ( * 1 lam2n14 ) ( * 1 lam2n15 ) ( * ( - 1 ) lam2n16 ) ( * ( - 1 ) lam2n17 ) ( * ( - 1 ) lam2n18 ) ( * Nl2arg11 lam2n22 ) ( - ( - RFN1_arg1 ) ) ) 0 ) ( = ( + ( * ( - 1 ) lam2n1 ) ( * ( - 1 ) lam2n2 ) ( * 1 lam2n6 ) ( * 1 lam2n7 ) ( * ( - 1 ) lam2n9 ) ( * ( - 1 ) lam2n11 ) ( * ( - 1 ) lam2n13 ) ( * ( - 1 ) lam2n14 ) ( * ( - 1 ) lam2n15 ) ( * ( - 1 ) lam2n16 ) ( * ( - 1 ) lam2n17 ) ( * ( - 1 ) lam2n18 ) ( * ( - 1 ) lam2n19 ) ( * ( - 1 ) lam2n20 ) ( * ( - 1 ) lam2n21 ) ( * Nl2arg21 lam2n22 ) ( - ( - RFN1_arg2 ) ) ) 0 ) ( = ( + ( * ( - 1 ) lam2n3 ) ( * ( - 1 ) lam2n4 ) ( * ( - 1 ) lam2n6 ) ( * ( - 1 ) lam2n7 ) ( * ( - 1 ) lam2n10 ) ( * ( - 1 ) lam2n13 ) ( * ( - 1 ) lam2n14 ) ( * ( - 1 ) lam2n15 ) ( * ( - 2 ) lam2n16 ) ( * ( - 2 ) lam2n17 ) ( * ( - 2 ) lam2n18 ) ( * ( - 1 ) lam2n19 ) ( * ( - 1 ) lam2n20 ) ( * ( - 1 ) lam2n21 ) ( * Nl2arg31 lam2n22 ) ( - ( - RFN1_arg3 ) ) ) 0 ) ( = ( + ( * ( - 1 ) lam2n2 ) ( * 1 lam2n4 ) ( * 1 lam2n10 ) ( * ( - 1 ) lam2n11 ) ( * ( - 1 ) lam2n12 ) ( * 1 lam2n14 ) ( * ( - 2 ) lam2n15 ) ( * 1 lam2n17 ) ( * ( - 1 ) lam2n18 ) ( * 1 lam2n20 ) ( * ( - 1 ) lam2n21 ) ( * Nl2arg41 lam2n22 ) ( - ( - RFN1_arg4 ) ) ) 0 ) ( = ( + ( * ( - 1 ) lam2n5 ) ( * 1 lam2n8 ) ) 0 ) ) ( and ( >= lam3n0 0 ) ( >= lam3n1 0 ) ( >= lam3n2 0 ) ( >= lam3n3 0 ) ( >= lam3n4 0 ) ( >= lam3n5 0 ) ( >= lam3n6 0 ) ( >= lam3n7 0 ) ( >= lam3n8 0 ) ( >= lam3n9 0 ) ( >= lam3n10 0 ) ( >= lam3n11 0 ) ( >= lam3n12 0 ) ( >= lam3n13 0 ) ( >= lam3n14 0 ) ( >= lam3n15 0 ) ( >= lam3n16 0 ) ( >= lam3n17 0 ) ( >= lam3n18 0 ) ( >= lam3n19 0 ) ( >= lam3n20 0 ) ( >= lam3n21 0 ) ( >= lam3n22 0 ) ( > ( + ( * 1 lam3n0 ) ( * 1 lam3n1 ) ( * 1 lam3n2 ) ( * 1 lam3n3 ) ( * 1 lam3n4 ) ( * 1 lam3n5 ) ( * ( - 1 ) lam3n6 ) ( * 2 lam3n10 ) ( * 2 lam3n11 ) ( * 2 lam3n12 ) ( * 50001 lam3n13 ) ( * 50001 lam3n14 ) ( * 50001 lam3n15 ) ( * 50001 lam3n16 ) ( * 50001 lam3n17 ) ( * 50001 lam3n18 ) ( * 50001 lam3n19 ) ( * 50001 lam3n20 ) ( * 50001 lam3n21 ) ( * Nl2CT1 lam3n22 ) ( - 1 ( + ( - ( + ( + ( + RFN1_CT ( * RFN1_arg1 0 ) ) ( * RFN1_arg2 0 ) ) ( * RFN1_arg3 0 ) ) RFN1_CT ) 1 ) ) ) 0 ) ( = ( + ( * ( - 1 ) lam3n0 ) ( * ( - 1 ) lam3n1 ) ( * ( - 1 ) lam3n2 ) ( * ( - 1 ) lam3n7 ) ( * ( - 1 ) lam3n8 ) ( * ( - 1 ) lam3n10 ) ( * 1 lam3n13 ) ( * 1 lam3n14 ) ( * 1 lam3n15 ) ( * ( - 1 ) lam3n16 ) ( * ( - 1 ) lam3n17 ) ( * ( - 1 ) lam3n18 ) ( * Nl2arg11 lam3n22 ) ( - ( - RFN1_arg1 ) ) ) 0 ) ( = ( + ( * ( - 1 ) lam3n1 ) ( * ( - 1 ) lam3n2 ) ( * 1 lam3n6 ) ( * 1 lam3n7 ) ( * ( - 1 ) lam3n9 ) ( * ( - 1 ) lam3n11 ) ( * ( - 1 ) lam3n13 ) ( * ( - 1 ) lam3n14 ) ( * ( - 1 ) lam3n15 ) ( * ( - 1 ) lam3n16 ) ( * ( - 1 ) lam3n17 ) ( * ( - 1 ) lam3n18 ) ( * ( - 1 ) lam3n19 ) ( * ( - 1 ) lam3n20 ) ( * ( - 1 ) lam3n21 ) ( * Nl2arg21 lam3n22 ) ( - ( - ( + 0 ( * RFN1_arg3 1 ) ) RFN1_arg2 ) ) ) 0 ) ( = ( + ( * ( - 1 ) lam3n3 ) ( * ( - 1 ) lam3n4 ) ( * ( - 1 ) lam3n6 ) ( * ( - 1 ) lam3n7 ) ( * ( - 1 ) lam3n10 ) ( * ( - 1 ) lam3n13 ) ( * ( - 1 ) lam3n14 ) ( * ( - 1 ) lam3n15 ) ( * ( - 2 ) lam3n16 ) ( * ( - 2 ) lam3n17 ) ( * ( - 2 ) lam3n18 ) ( * ( - 1 ) lam3n19 ) ( * ( - 1 ) lam3n20 ) ( * ( - 1 ) lam3n21 ) ( * Nl2arg31 lam3n22 ) ( - ( - ( + ( + 0 ( * RFN1_arg2 1 ) ) ( * RFN1_arg3 1 ) ) RFN1_arg3 ) ) ) 0 ) ( = ( + ( * ( - 1 ) lam3n2 ) ( * 1 lam3n4 ) ( * 1 lam3n10 ) ( * ( - 1 ) lam3n11 ) ( * ( - 1 ) lam3n12 ) ( * 1 lam3n14 ) ( * ( - 2 ) lam3n15 ) ( * 1 lam3n17 ) ( * ( - 1 ) lam3n18 ) ( * 1 lam3n20 ) ( * ( - 1 ) lam3n21 ) ( * Nl2arg41 lam3n22 ) ( - ( - ( + 0 RFN1_arg4 ) RFN1_arg4 ) ) ) 0 ) ( = ( + ( * ( - 1 ) lam3n5 ) ( * 1 lam3n8 ) ( - ( + 0 ( * RFN1_arg1 1 ) ) ) ) 0 ) ) ) ( and ( >= lam5n0 0 ) ( >= lam5n1 0 ) ( >= lam5n2 0 ) ( >= lam5n3 0 ) ( >= lam5n4 0 ) ( >= lam5n5 0 ) ( >= lam5n6 0 ) ( >= lam5n7 0 ) ( >= lam5n8 0 ) ( >= lam5n9 0 ) ( >= lam5n10 0 ) ( >= lam5n11 0 ) ( >= lam5n12 0 ) ( >= lam5n13 0 ) ( >= lam5n14 0 ) ( >= lam5n15 0 ) ( >= lam5n16 0 ) ( >= lam5n17 0 ) ( >= lam5n18 0 ) ( >= lam5n19 0 ) ( >= lam5n20 0 ) ( >= lam5n21 0 ) ( >= lam5n22 0 ) ( > ( + ( * 1 lam5n0 ) ( * 1 lam5n1 ) ( * 1 lam5n2 ) ( * 1 lam5n3 ) ( * 1 lam5n4 ) ( * 1 lam5n5 ) ( * ( - 1 ) lam5n6 ) ( * 2 lam5n10 ) ( * 2 lam5n11 ) ( * 2 lam5n12 ) ( * 50001 lam5n13 ) ( * 50001 lam5n14 ) ( * 50001 lam5n15 ) ( * 50001 lam5n16 ) ( * 50001 lam5n17 ) ( * 50001 lam5n18 ) ( * 50001 lam5n19 ) ( * 50001 lam5n20 ) ( * 50001 lam5n21 ) ( * ( + ( - Nl2CT1 ) 1 ) lam5n22 ) ( - 1 ) ) 0 ) ( = ( + ( * ( - 1 ) lam5n0 ) ( * ( - 1 ) lam5n1 ) ( * ( - 1 ) lam5n2 ) ( * ( - 1 ) lam5n7 ) ( * ( - 1 ) lam5n8 ) ( * ( - 1 ) lam5n10 ) ( * 1 lam5n13 ) ( * 1 lam5n14 ) ( * 1 lam5n15 ) ( * ( - 1 ) lam5n16 ) ( * ( - 1 ) lam5n17 ) ( * ( - 1 ) lam5n18 ) ( * ( - Nl2arg11 ) lam5n22 ) ) 0 ) ( = ( + ( * ( - 1 ) lam5n1 ) ( * ( - 1 ) lam5n2 ) ( * 1 lam5n6 ) ( * 1 lam5n7 ) ( * ( - 1 ) lam5n9 ) ( * ( - 1 ) lam5n11 ) ( * ( - 1 ) lam5n13 ) ( * ( - 1 ) lam5n14 ) ( * ( - 1 ) lam5n15 ) ( * ( - 1 ) lam5n16 ) ( * ( - 1 ) lam5n17 ) ( * ( - 1 ) lam5n18 ) ( * ( - 1 ) lam5n19 ) ( * ( - 1 ) lam5n20 ) ( * ( - 1 ) lam5n21 ) ( * ( - Nl2arg21 ) lam5n22 ) ) 0 ) ( = ( + ( * ( - 1 ) lam5n3 ) ( * ( - 1 ) lam5n4 ) ( * ( - 1 ) lam5n6 ) ( * ( - 1 ) lam5n7 ) ( * ( - 1 ) lam5n10 ) ( * ( - 1 ) lam5n13 ) ( * ( - 1 ) lam5n14 ) ( * ( - 1 ) lam5n15 ) ( * ( - 2 ) lam5n16 ) ( * ( - 2 ) lam5n17 ) ( * ( - 2 ) lam5n18 ) ( * ( - 1 ) lam5n19 ) ( * ( - 1 ) lam5n20 ) ( * ( - 1 ) lam5n21 ) ( * ( - Nl2arg31 ) lam5n22 ) ) 0 ) ( = ( + ( * ( - 1 ) lam5n2 ) ( * 1 lam5n4 ) ( * 1 lam5n10 ) ( * ( - 1 ) lam5n11 ) ( * ( - 1 ) lam5n12 ) ( * 1 lam5n14 ) ( * ( - 2 ) lam5n15 ) ( * 1 lam5n17 ) ( * ( - 1 ) lam5n18 ) ( * 1 lam5n20 ) ( * ( - 1 ) lam5n21 ) ( * ( - Nl2arg41 ) lam5n22 ) ) 0 ) ( = ( + ( * ( - 1 ) lam5n5 ) ( * 1 lam5n8 ) ) 0 ) ) ))
(check-sat)
(exit)
